DIMACS2
160 63 342 39 343 597 502 17 491 293 234 146 20 113 593 509 545 33 203 188 440 354 101 533 359 31 6 522 492 104 605 265 2 313 534 472 127 90 97 279 7 483 480 77 436 5 551 517 105 142 355 439 57 620 319 407 50 35 18 88 346 80 268 284 541 75 448 247 236 174 523 351 285 220 488 192 575 516 286 512 623 513 505 457 566 103 553 331 557 417 158 114 580 179 365 269 340 484 270 568 218 46 443 38 527 508 189 198 579 496 564 625 167 542 548 379 473 276 78 140 308 357 44 194 274 464 74 182 267 547 82 524 634 532 152 450 519 506 515 65 215 292 370 581 455 196 474 495 375 264 52 60 616 424 325 282 43 413 335 287 366
p edge 640 2556
e 0 388 2.0
e 0 293 32.0
e 0 245 3.0
e 0 419 1.0
e 1 399 1.0
e 1 34 1.0
e 1 612 1.0
e 1 381 1.0
e 2 97 43.0
e 2 149 33.0
e 2 475 27.0
e 2 67 26.0
e 3 528 1.0
e 3 59 1.0
e 3 631 1.0
e 3 81 1.0
e 4 610 1.0
e 4 236 38.0
e 4 309 1.0
e 4 398 1.0
e 5 290 45.0
e 5 526 6.0
e 5 124 31.0
e 5 595 29.0
e 6 354 30.0
e 6 155 49.0
e 6 163 49.0
e 6 478 43.0
e 7 285 42.0
e 7 190 1.0
e 7 277 9.0
e 7 398 22.0
e 8 134 1.0
e 8 99 1.0
e 8 578 2.0
e 8 482 1.0
e 9 599 1.0
e 9 17 24.0
e 9 206 1.0
e 9 278 1.0
e 10 468 2.0
e 10 470 1.0
e 10 251 2.0
e 10 243 3.0
e 11 474 4.0
e 11 291 1.0
e 11 633 2.0
e 11 355 49.0
e 12 599 1.0
e 12 362 2.0
e 12 63 19.0
e 12 416 1.0
e 13 395 1.0
e 13 307 1.0
e 13 382 2.0
e 13 56 1.0
e 14 355 19.0
e 14 308 29.0
e 14 320 1.0
e 14 57 10.0
e 15 190 1.0
e 15 102 1.0
e 15 580 11.0
e 15 505 38.0
e 16 218 1.0
e 16 557 23.0
e 16 319 7.0
e 16 547 21.0
e 17 157 44.0
e 17 98 39.0
e 17 139 15.0
e 18 166 47.0
e 18 26 9.0
e 18 421 47.0
e 18 429 39.0
e 19 307 1.0
e 19 616 10.0
e 19 219 1.0
e 19 617 1.0
e 20 144 36.0
e 20 553 47.0
e 20 406 15.0
e 20 520 36.0
e 21 171 1.0
e 21 598 1.0
e 21 54 1.0
e 21 583 1.0
e 22 270 40.0
e 22 354 5.0
e 22 175 1.0
e 22 73 1.0
e 23 350 1.0
e 23 384 2.0
e 23 411 1.0
e 23 319 42.0
e 24 391 1.0
e 24 418 1.0
e 24 548 33.0
e 24 144 1.0
e 25 104 31.0
e 25 163 1.0
e 25 199 1.0
e 25 167 48.0
e 26 528 1.0
e 26 480 9.0
e 26 176 1.0
e 26 45 1.0
e 27 404 1.0
e 27 615 2.0
e 27 489 2.0
e 27 566 44.0
e 28 465 1.0
e 28 184 2.0
e 28 564 49.0
e 28 249 1.0
e 29 346 15.0
e 29 187 1.0
e 29 514 1.0
e 29 515 31.0
e 30 12 1.0
e 30 67 1.0
e 30 112 1.0
e 30 18 29.0
e 31 357 42.0
e 31 414 18.0
e 31 65 24.0
e 31 306 2.0
e 32 545 23.0
e 32 550 2.0
e 32 251 2.0
e 32 308 35.0
e 33 48 13.0
e 33 183 4.0
e 33 70 21.0
e 33 17 20.0
e 34 537 1.0
e 34 401 1.0
e 34 126 1.0
e 34 193 1.0
e 35 71 8.0
e 35 310 17.0
e 35 625 21.0
e 35 112 23.0
e 36 395 1.0
e 36 489 1.0
e 36 142 18.0
e 36 329 1.0
e 37 217 1.0
e 37 55 1.0
e 37 379 23.0
e 37 75 25.0
e 38 367 43.0
e 38 84 33.0
e 38 21 4.0
e 38 634 26.0
e 39 75 34.0
e 39 357 35.0
e 39 240 9.0
e 39 610 31.0
e 40 414 2.0
e 40 194 27.0
e 40 576 2.0
e 40 500 2.0
e 41 577 1.0
e 41 372 1.0
e 41 539 1.0
e 41 141 1.0
e 42 173 2.0
e 42 455 8.0
e 42 339 1.0
e 42 201 2.0
e 43 356 3.0
e 43 107 49.0
e 43 638 21.0
e 43 211 19.0
e 44 187 20.0
e 44 561 27.0
e 44 250 20.0
e 44 75 7.0
e 45 398 1.0
e 45 402 1.0
e 45 50 44.0
e 45 533 21.0
e 46 393 42.0
e 46 264 1.0
e 46 125 21.0
e 46 555 36.0
e 47 583 1.0
e 47 517 17.0
e 47 559 1.0
e 47 317 1.0
e 48 262 1.0
e 48 316 1.0
e 48 556 3.0
e 48 286 29.0
e 49 501 1.0
e 49 11 1.0
e 49 235 1.0
e 49 24 1.0
e 50 180 17.0
e 50 511 16.0
e 50 346 32.0
e 50 431 26.0
e 51 586 1.0
e 51 556 1.0
e 51 538 2.0
e 51 427 1.0
e 52 503 28.0
e 52 129 25.0
e 52 362 4.0
e 52 285 39.0
e 53 575 49.0
e 53 187 1.0
e 53 132 1.0
e 53 99 1.0
e 54 393 3.0
e 54 76 1.0
e 54 120 1.0
e 54 153 1.0
e 55 8 1.0
e 55 392 1.0
e 55 574 1.0
e 55 25 1.0
e 56 169 1.0
e 56 118 1.0
e 56 254 1.0
e 56 114 12.0
e 57 494 6.0
e 57 5 43.0
e 57 446 8.0
e 57 418 15.0
e 58 569 1.0
e 58 515 3.0
e 58 595 2.0
e 58 56 1.0
e 59 238 1.0
e 59 151 1.0
e 59 198 9.0
e 59 430 1.0
e 60 484 37.0
e 60 511 29.0
e 60 36 14.0
e 60 461 26.0
e 61 461 1.0
e 61 405 1.0
e 61 517 12.0
e 61 190 1.0
e 62 33 39.0
e 62 638 1.0
e 62 309 1.0
e 62 141 2.0
e 63 143 36.0
e 63 216 11.0
e 63 84 49.0
e 63 471 37.0
e 64 159 2.0
e 64 194 45.0
e 64 87 2.0
e 64 26 2.0
e 65 468 17.0
e 65 476 1.0
e 65 141 22.0
e 65 182 15.0
e 66 132 1.0
e 66 427 1.0
e 66 326 1.0
e 66 275 1.0
e 67 531 1.0
e 67 43 42.0
e 67 386 1.0
e 67 500 1.0
e 68 257 1.0
e 68 470 1.0
e 68 533 11.0
e 68 545 3.0
e 69 39 29.0
e 69 119 1.0
e 69 439 22.0
e 69 338 1.0
e 70 349 1.0
e 70 6 29.0
e 70 174 9.0
e 70 440 35.0
e 71 197 1.0
e 71 399 1.0
e 71 36 1.0
e 71 584 1.0
e 72 267 40.0
e 72 294 1.0
e 72 485 1.0
e 72 266 1.0
e 73 577 1.0
e 73 20 43.0
e 73 388 1.0
e 73 39 6.0
e 74 165 24.0
e 74 26 21.0
e 74 92 38.0
e 74 602 6.0
e 75 261 8.0
e 75 330 1.0
e 75 124 24.0
e 75 213 47.0
e 76 352 1.0
e 76 551 20.0
e 76 110 1.0
e 76 152 18.0
e 77 299 5.0
e 77 612 47.0
e 77 401 7.0
e 77 270 3.0
e 78 163 25.0
e 78 179 26.0
e 78 528 15.0
e 78 551 29.0
e 79 432 1.0
e 79 526 1.0
e 79 505 1.0
e 79 77 8.0
e 80 484 16.0
e 80 5 46.0
e 80 24 1.0
e 80 346 23.0
e 81 492 26.0
e 81 223 1.0
e 81 39 39.0
e 81 250 1.0
e 82 210 10.0
e 82 415 14.0
e 82 616 6.0
e 82 11 19.0
e 83 511 1.0
e 83 589 2.0
e 83 621 1.0
e 83 288 1.0
e 84 536 1.0
e 84 214 1.0
e 84 388 1.0
e 84 148 1.0
e 85 589 3.0
e 85 222 1.0
e 85 624 1.0
e 85 26 1.0
e 86 638 1.0
e 86 133 1.0
e 86 292 44.0
e 86 533 25.0
e 87 530 1.0
e 87 13 2.0
e 87 148 1.0
e 87 261 1.0
e 88 301 2.0
e 88 230 21.0
e 88 142 12.0
e 88 127 48.0
e 89 326 3.0
e 89 23 2.0
e 89 459 2.0
e 89 236 18.0
e 90 512 23.0
e 90 93 6.0
e 90 368 4.0
e 90 172 37.0
e 91 262 1.0
e 91 612 1.0
e 91 153 1.0
e 91 561 2.0
e 92 19 1.0
e 92 0 1.0
e 92 44 41.0
e 92 337 1.0
e 93 436 6.0
e 93 332 1.0
e 93 364 1.0
e 93 468 1.0
e 94 84 1.0
e 94 42 1.0
e 94 379 43.0
e 94 85 1.0
e 95 616 40.0
e 95 143 1.0
e 95 535 1.0
e 95 332 1.0
e 96 459 1.0
e 96 338 3.0
e 96 348 1.0
e 96 569 2.0
e 97 188 38.0
e 97 336 49.0
e 97 205 38.0
e 97 583 20.0
e 98 258 1.0
e 98 541 11.0
e 98 409 1.0
e 98 66 1.0
e 99 247 13.0
e 99 121 1.0
e 99 118 1.0
e 99 17 30.0
e 100 154 1.0
e 100 110 1.0
e 100 88 26.0
e 100 462 2.0
e 101 71 25.0
e 101 552 41.0
e 101 397 43.0
e 101 138 14.0
e 102 594 1.0
e 102 610 1.0
e 102 586 1.0
e 102 249 1.0
e 103 52 23.0
e 103 246 3.0
e 103 271 27.0
e 103 444 37.0
e 104 53 21.0
e 104 504 23.0
e 104 564 23.0
e 104 87 47.0
e 105 281 42.0
e 105 598 11.0
e 105 78 24.0
e 105 264 44.0
e 106 616 16.0
e 106 334 1.0
e 106 151 1.0
e 106 154 1.0
e 107 554 1.0
e 107 598 1.0
e 107 249 2.0
e 107 392 2.0
e 108 115 1.0
e 108 62 2.0
e 108 113 18.0
e 108 383 1.0
e 109 316 1.0
e 109 413 2.0
e 109 398 1.0
e 109 506 49.0
e 110 493 1.0
e 110 300 1.0
e 110 321 1.0
e 110 192 39.0
e 111 99 1.0
e 111 203 12.0
e 111 64 1.0
e 111 145 1.0
e 112 458 1.0
e 112 0 2.0
e 112 516 37.0
e 112 161 2.0
e 113 287 10.0
e 113 228 47.0
e 113 527 36.0
e 113 259 7.0
e 114 499 45.0
e 114 19 23.0
e 114 299 36.0
e 114 82 43.0
e 115 530 1.0
e 115 151 1.0
e 115 426 1.0
e 115 163 1.0
e 116 327 2.0
e 116 575 48.0
e 116 637 1.0
e 116 363 2.0
e 117 485 1.0
e 117 318 2.0
e 117 156 1.0
e 117 523 47.0
e 118 597 30.0
e 118 603 1.0
e 118 574 1.0
e 118 502 36.0
e 119 576 1.0
e 119 611 1.0
e 119 291 2.0
e 119 260 1.0
e 120 401 1.0
e 120 233 1.0
e 120 574 1.0
e 120 463 1.0
e 121 211 1.0
e 121 616 45.0
e 121 1 2.0
e 121 354 12.0
e 122 573 2.0
e 122 323 1.0
e 122 306 1.0
e 122 68 1.0
e 123 242 1.0
e 123 509 49.0
e 123 630 1.0
e 123 557 12.0
e 124 104 10.0
e 124 142 20.0
e 124 626 1.0
e 124 381 1.0
e 125 144 2.0
e 125 592 1.0
e 125 624 3.0
e 125 222 2.0
e 126 360 1.0
e 126 141 1.0
e 126 105 42.0
e 126 483 3.0
e 127 564 14.0
e 127 72 44.0
e 127 453 3.0
e 127 108 7.0
e 128 74 26.0
e 128 622 1.0
e 128 474 1.0
e 128 503 1.0
e 129 282 19.0
e 129 626 1.0
e 129 289 1.0
e 129 211 1.0
e 130 458 1.0
e 130 97 14.0
e 130 326 1.0
e 130 423 2.0
e 131 247 30.0
e 131 201 1.0
e 131 66 2.0
e 131 109 1.0
e 132 282 23.0
e 132 449 1.0
e 132 111 1.0
e 132 193 1.0
e 133 322 1.0
e 133 297 1.0
e 133 16 1.0
e 133 555 1.0
e 134 630 1.0
e 134 441 1.0
e 134 489 1.0
e 134 70 1.0
e 135 80 6.0
e 135 196 48.0
e 135 35 16.0
e 135 226 1.0
e 136 630 1.0
e 136 301 1.0
e 136 428 1.0
e 136 269 46.0
e 137 256 1.0
e 137 315 1.0
e 137 503 3.0
e 137 206 1.0
e 138 257 2.0
e 138 632 1.0
e 138 137 3.0
e 138 592 2.0
e 139 415 1.0
e 139 301 1.0
e 139 273 2.0
e 139 49 1.0
e 140 441 13.0
e 140 352 48.0
e 140 163 39.0
e 140 592 13.0
e 141 551 15.0
e 141 181 1.0
e 141 555 1.0
e 141 117 1.0
e 142 631 4.0
e 142 48 38.0
e 142 364 4.0
e 142 169 20.0
e 143 285 18.0
e 143 166 1.0
e 143 632 1.0
e 143 531 1.0
e 144 3 1.0
e 144 264 33.0
e 144 76 1.0
e 144 196 3.0
e 145 149 1.0
e 145 82 7.0
e 145 364 1.0
e 145 103 48.0
e 146 166 13.0
e 146 30 4.0
e 146 575 24.0
e 146 358 17.0
e 147 603 1.0
e 147 611 1.0
e 147 553 40.0
e 147 422 2.0
e 148 21 1.0
e 148 238 1.0
e 148 382 1.0
e 148 177 1.0
e 149 57 30.0
e 149 179 9.0
e 149 508 1.0
e 149 597 15.0
e 150 153 1.0
e 150 126 1.0
e 150 105 28.0
e 150 120 1.0
e 151 118 1.0
e 151 243 1.0
e 151 368 1.0
e 151 360 1.0
e 152 209 14.0
e 152 624 23.0
e 152 21 37.0
e 152 493 31.0
e 153 610 1.0
e 153 235 1.0
e 153 5 1.0
e 153 461 1.0
e 154 170 2.0
e 154 497 2.0
e 154 185 2.0
e 154 501 1.0
e 155 457 12.0
e 155 606 1.0
e 155 598 1.0
e 155 516 34.0
e 156 207 1.0
e 156 297 1.0
e 156 415 2.0
e 156 584 1.0
e 157 13 2.0
e 157 231 1.0
e 157 161 2.0
e 157 613 1.0
e 158 28 43.0
e 158 431 29.0
e 158 171 30.0
e 158 414 14.0
e 159 141 1.0
e 159 195 2.0
e 159 28 3.0
e 159 152 30.0
e 160 564 15.0
e 160 510 1.0
e 160 278 1.0
e 160 268 2.0
e 161 321 1.0
e 161 77 22.0
e 161 36 1.0
e 161 344 2.0
e 162 523 7.0
e 162 72 1.0
e 162 235 1.0
e 162 482 1.0
e 163 134 1.0
e 163 226 1.0
e 163 223 1.0
e 164 401 1.0
e 164 282 39.0
e 164 119 2.0
e 164 566 30.0
e 165 519 22.0
e 165 155 1.0
e 165 576 2.0
e 165 98 1.0
e 166 255 1.0
e 166 536 1.0
e 166 600 1.0
e 166 47 1.0
e 167 172 28.0
e 167 306 3.0
e 167 366 12.0
e 167 426 31.0
e 168 375 1.0
e 168 176 1.0
e 168 88 26.0
e 168 34 1.0
e 169 112 1.0
e 169 446 1.0
e 169 589 2.0
e 169 225 1.0
e 170 488 16.0
e 170 15 1.0
e 170 290 1.0
e 170 277 1.0
e 171 559 1.0
e 171 417 32.0
e 171 48 1.0
e 171 128 1.0
e 172 143 1.0
e 172 437 1.0
e 172 278 1.0
e 172 112 1.0
e 173 476 1.0
e 173 57 1.0
e 173 605 27.0
e 173 378 1.0
e 174 157 33.0
e 174 108 23.0
e 174 101 36.0
e 174 591 9.0
e 175 300 1.0
e 175 220 40.0
e 175 542 14.0
e 175 398 1.0
e 176 418 1.0
e 176 636 1.0
e 176 317 1.0
e 176 93 1.0
e 177 447 1.0
e 177 483 47.0
e 177 265 9.0
e 177 456 1.0
e 178 39 1.0
e 178 110 1.0
e 178 507 1.0
e 178 510 1.0
e 179 31 22.0
e 179 142 10.0
e 179 111 40.0
e 179 623 41.0
e 180 5 23.0
e 180 164 1.0
e 180 590 1.0
e 180 447 1.0
e 181 503 1.0
e 181 534 44.0
e 181 269 32.0
e 181 6 1.0
e 182 562 41.0
e 182 318 35.0
e 182 594 39.0
e 182 254 4.0
e 183 617 1.0
e 183 94 1.0
e 183 431 1.0
e 183 353 1.0
e 184 372 1.0
e 184 480 36.0
e 184 461 1.0
e 184 373 2.0
e 185 242 2.0
e 185 410 1.0
e 185 168 2.0
e 185 548 11.0
e 186 388 2.0
e 186 37 3.0
e 186 605 18.0
e 186 165 1.0
e 187 323 1.0
e 187 357 6.0
e 187 251 1.0
e 187 565 2.0
e 188 94 19.0
e 188 431 36.0
e 188 409 28.0
e 188 475 10.0
e 189 516 19.0
e 189 218 1.0
e 189 30 42.0
e 189 528 44.0
e 190 260 1.0
e 190 386 1.0
e 190 479 1.0
e 190 300 1.0
e 191 490 1.0
e 191 323 1.0
e 191 489 1.0
e 191 213 1.0
e 192 343 7.0
e 192 267 30.0
e 192 149 30.0
e 192 85 30.0
e 193 192 31.0
e 193 86 1.0
e 193 92 1.0
e 193 234 6.0
e 194 150 43.0
e 194 339 17.0
e 194 85 19.0
e 194 176 31.0
e 195 179 2.0
e 195 342 32.0
e 195 614 1.0
e 195 71 1.0
e 196 346 38.0
e 196 63 49.0
e 196 311 29.0
e 196 410 45.0
e 197 555 2.0
e 197 232 3.0
e 197 316 1.0
e 197 620 27.0
e 198 602 45.0
e 198 463 19.0
e 198 471 24.0
e 198 292 9.0
e 199 299 1.0
e 199 459 1.0
e 199 392 1.0
e 199 210 1.0
e 200 78 15.0
e 200 628 1.0
e 200 550 1.0
e 200 461 1.0
e 201 398 1.0
e 201 558 2.0
e 201 160 2.0
e 201 329 2.0
e 202 487 2.0
e 202 245 1.0
e 202 321 2.0
e 202 118 3.0
e 203 46 15.0
e 203 271 26.0
e 203 182 22.0
e 203 128 12.0
e 204 163 1.0
e 204 172 1.0
e 204 115 1.0
e 204 580 21.0
e 205 88 4.0
e 205 599 1.0
e 205 486 2.0
e 205 238 1.0
e 206 448 23.0
e 206 279 8.0
e 206 360 1.0
e 206 19 1.0
e 207 620 13.0
e 207 455 21.0
e 207 424 31.0
e 207 18 22.0
e 208 437 1.0
e 208 101 43.0
e 208 54 1.0
e 208 105 35.0
e 209 496 18.0
e 209 303 1.0
e 209 168 1.0
e 209 267 38.0
e 210 490 1.0
e 210 111 1.0
e 210 597 37.0
e 210 323 1.0
e 211 496 2.0
e 211 431 1.0
e 211 631 1.0
e 211 389 1.0
e 212 309 2.0
e 212 2 22.0
e 212 109 1.0
e 212 115 2.0
e 213 107 1.0
e 213 377 1.0
e 213 341 1.0
e 213 80 3.0
e 214 78 33.0
e 214 394 1.0
e 214 17 1.0
e 214 126 1.0
e 215 461 47.0
e 215 360 36.0
e 215 380 2.0
e 215 456 5.0
e 216 445 1.0
e 216 357 36.0
e 216 188 2.0
e 216 20 24.0
e 217 26 1.0
e 217 297 1.0
e 217 631 1.0
e 217 262 1.0
e 218 612 7.0
e 218 319 17.0
e 218 292 39.0
e 218 286 48.0
e 219 283 1.0
e 219 636 1.0
e 219 187 1.0
e 219 29 1.0
e 220 266 11.0
e 220 454 19.0
e 220 571 29.0
e 220 252 32.0
e 221 321 1.0
e 221 614 1.0
e 221 295 1.0
e 221 14 1.0
e 222 43 8.0
e 222 341 1.0
e 222 294 1.0
e 222 144 1.0
e 223 472 8.0
e 223 378 1.0
e 223 177 1.0
e 223 328 1.0
e 224 558 1.0
e 224 149 1.0
e 224 600 1.0
e 224 356 1.0
e 225 50 48.0
e 225 156 1.0
e 225 84 1.0
e 225 186 1.0
e 226 627 2.0
e 226 448 12.0
e 226 429 1.0
e 226 170 1.0
e 227 379 2.0
e 227 69 1.0
e 227 567 1.0
e 227 85 1.0
e 228 103 36.0
e 228 606 1.0
e 228 226 2.0
e 228 622 1.0
e 229 521 1.0
e 229 442 1.0
e 229 64 1.0
e 229 49 1.0
e 230 464 29.0
e 230 614 1.0
e 230 466 2.0
e 230 6 47.0
e 231 551 28.0
e 231 8 1.0
e 231 265 47.0
e 231 517 32.0
e 232 255 1.0
e 232 131 1.0
e 232 387 1.0
e 232 79 2.0
e 233 148 1.0
e 233 192 42.0
e 233 217 1.0
e 233 301 1.0
e 234 559 31.0
e 234 168 25.0
e 234 165 27.0
e 234 500 35.0
e 235 393 1.0
e 235 26 1.0
e 235 483 29.0
e 235 283 1.0
e 236 235 36.0
e 236 297 30.0
e 236 430 18.0
e 236 80 49.0
e 237 16 1.0
e 237 566 34.0
e 237 541 16.0
e 237 119 1.0
e 238 133 1.0
e 238 170 1.0
e 238 388 1.0
e 238 323 1.0
e 239 346 21.0
e 239 567 2.0
e 239 398 2.0
e 239 214 1.0
e 240 218 11.0
e 240 182 40.0
e 240 277 1.0
e 240 188 27.0
e 241 274 4.0
e 241 347 2.0
e 241 316 2.0
e 241 619 1.0
e 242 586 1.0
e 242 72 1.0
e 242 140 3.0
e 242 279 3.0
e 243 75 28.0
e 243 433 1.0
e 243 58 1.0
e 243 449 1.0
e 244 207 1.0
e 244 615 1.0
e 244 612 1.0
e 244 624 1.0
e 245 597 21.0
e 245 226 1.0
e 245 448 10.0
e 245 557 11.0
e 246 569 2.0
e 246 394 1.0
e 246 269 36.0
e 246 432 1.0
e 247 96 12.0
e 247 246 14.0
e 247 274 11.0
e 247 601 40.0
e 248 117 1.0
e 248 476 2.0
e 248 276 20.0
e 248 633 1.0
e 249 544 3.0
e 249 440 41.0
e 249 507 1.0
e 249 272 1.0
e 250 242 1.0
e 250 496 28.0
e 250 398 1.0
e 250 521 1.0
e 251 81 1.0
e 251 44 13.0
e 251 94 1.0
e 251 378 2.0
e 252 95 1.0
e 252 439 4.0
e 252 419 1.0
e 252 300 1.0
e 253 458 1.0
e 253 527 12.0
e 253 141 1.0
e 253 275 2.0
e 254 455 6.0
e 254 96 1.0
e 254 111 1.0
e 254 206 1.0
e 255 475 1.0
e 255 87 1.0
e 255 34 1.0
e 255 615 1.0
e 256 215 46.0
e 256 224 1.0
e 256 533 39.0
e 256 525 2.0
e 257 10 1.0
e 257 618 1.0
e 257 25 1.0
e 257 151 1.0
e 258 335 48.0
e 258 252 1.0
e 258 456 1.0
e 258 467 1.0
e 259 247 42.0
e 259 133 1.0
e 259 613 1.0
e 259 28 1.0
e 260 398 2.0
e 260 100 1.0
e 260 97 30.0
e 260 36 1.0
e 261 54 1.0
e 261 117 1.0
e 261 528 1.0
e 261 72 1.0
e 262 285 24.0
e 262 144 2.0
e 262 447 2.0
e 262 603 3.0
e 263 370 49.0
e 263 134 1.0
e 263 532 7.0
e 263 528 1.0
e 264 598 29.0
e 264 358 14.0
e 264 474 34.0
e 264 220 46.0
e 265 340 46.0
e 265 75 14.0
e 265 297 25.0
e 265 360 46.0
e 266 439 21.0
e 266 227 1.0
e 266 207 1.0
e 266 552 1.0
e 267 274 45.0
e 267 498 42.0
e 267 514 7.0
e 267 17 45.0
e 268 24 49.0
e 268 145 26.0
e 268 202 5.0
e 268 191 49.0
e 269 531 28.0
e 269 43 19.0
e 269 124 19.0
e 269 232 23.0
e 270 581 18.0
e 270 571 8.0
e 270 635 18.0
e 270 157 4.0
e 271 365 40.0
e 271 483 34.0
e 271 34 1.0
e 271 406 1.0
e 272 285 13.0
e 272 21 1.0
e 272 444 1.0
e 272 459 2.0
e 273 579 2.0
e 273 324 1.0
e 273 621 1.0
e 273 82 21.0
e 274 613 23.0
e 274 523 25.0
e 274 374 37.0
e 274 280 30.0
e 275 362 1.0
e 275 167 4.0
e 275 59 1.0
e 275 440 29.0
e 276 580 35.0
e 276 136 45.0
e 276 321 6.0
e 276 363 8.0
e 277 114 31.0
e 277 255 1.0
e 277 510 1.0
e 277 330 1.0
e 278 167 4.0
e 278 1 2.0
e 278 287 10.0
e 278 351 40.0
e 279 193 6.0
e 279 319 38.0
e 279 503 10.0
e 279 90 17.0
e 280 136 2.0
e 280 535 2.0
e 280 349 2.0
e 280 552 1.0
e 281 416 1.0
e 281 342 5.0
e 281 598 1.0
e 281 87 1.0
e 282 606 38.0
e 282 596 41.0
e 282 459 28.0
e 282 39 47.0
e 283 17 10.0
e 283 427 1.0
e 283 320 1.0
e 283 538 1.0
e 284 104 7.0
e 284 634 39.0
e 284 283 28.0
e 284 87 44.0
e 285 620 39.0
e 285 507 15.0
e 285 24 30.0
e 285 538 43.0
e 286 271 17.0
e 286 162 17.0
e 286 496 29.0
e 286 464 40.0
e 287 200 2.0
e 287 17 6.0
e 287 464 38.0
e 287 377 24.0
e 288 370 27.0
e 288 269 15.0
e 288 41 1.0
e 288 88 30.0
e 289 63 46.0
e 289 65 29.0
e 289 570 1.0
e 289 413 18.0
e 290 540 1.0
e 290 429 1.0
e 290 240 1.0
e 290 309 1.0
e 291 610 1.0
e 291 559 1.0
e 291 29 1.0
e 291 243 1.0
e 292 637 17.0
e 292 237 2.0
e 292 587 29.0
e 292 464 48.0
e 293 178 47.0
e 293 571 8.0
e 293 300 37.0
e 293 507 5.0
e 294 354 30.0
e 294 496 42.0
e 294 355 30.0
e 294 55 1.0
e 295 239 1.0
e 295 367 2.0
e 295 60 17.0
e 295 482 1.0
e 296 502 6.0
e 296 419 2.0
e 296 278 3.0
e 296 606 1.0
e 297 270 36.0
e 297 200 1.0
e 297 286 18.0
e 297 530 2.0
e 298 638 1.0
e 298 314 2.0
e 298 72 1.0
e 298 302 1.0
e 299 21 1.0
e 299 365 1.0
e 299 304 1.0
e 299 529 2.0
e 300 204 1.0
e 300 611 1.0
e 300 335 1.0
e 300 384 2.0
e 301 9 1.0
e 301 183 1.0
e 301 432 1.0
e 301 455 3.0
e 302 244 1.0
e 302 84 1.0
e 302 426 1.0
e 302 220 23.0
e 303 108 1.0
e 303 299 1.0
e 303 360 1.0
e 303 361 1.0
e 304 613 1.0
e 304 548 13.0
e 304 385 1.0
e 304 221 1.0
e 305 544 1.0
e 305 130 1.0
e 305 473 25.0
e 305 226 2.0
e 306 382 1.0
e 306 266 1.0
e 306 53 1.0
e 306 32 1.0
e 307 212 1.0
e 307 613 1.0
e 307 510 1.0
e 307 553 34.0
e 308 352 20.0
e 308 361 13.0
e 308 623 8.0
e 308 414 9.0
e 309 574 1.0
e 309 384 2.0
e 309 508 41.0
e 309 338 1.0
e 310 566 13.0
e 310 147 1.0
e 310 286 47.0
e 310 490 1.0
e 311 473 38.0
e 311 590 1.0
e 311 76 1.0
e 311 480 17.0
e 312 362 2.0
e 312 568 10.0
e 312 186 2.0
e 312 267 8.0
e 313 519 1.0
e 313 6 47.0
e 313 370 36.0
e 313 137 26.0
e 314 172 1.0
e 314 424 22.0
e 314 327 1.0
e 314 318 1.0
e 315 65 34.0
e 315 484 26.0
e 315 114 31.0
e 315 31 32.0
e 316 194 15.0
e 316 549 1.0
e 316 435 3.0
e 316 224 1.0
e 317 162 2.0
e 317 152 27.0
e 317 209 2.0
e 317 297 2.0
e 318 126 1.0
e 318 367 1.0
e 318 272 1.0
e 318 571 2.0
e 319 532 1.0
e 319 573 34.0
e 319 507 24.0
e 319 170 48.0
e 320 159 1.0
e 320 107 2.0
e 320 17 5.0
e 320 588 1.0
e 321 430 1.0
e 321 77 10.0
e 321 87 1.0
e 322 421 1.0
e 322 255 1.0
e 322 49 1.0
e 322 114 11.0
e 323 201 2.0
e 323 385 1.0
e 323 542 25.0
e 323 556 2.0
e 324 488 41.0
e 324 241 1.0
e 324 627 1.0
e 324 32 2.0
e 325 595 37.0
e 325 542 11.0
e 325 544 29.0
e 325 409 46.0
e 326 201 1.0
e 326 265 39.0
e 326 604 1.0
e 326 306 1.0
e 327 607 2.0
e 327 602 1.0
e 327 202 2.0
e 327 591 1.0
e 328 154 1.0
e 328 528 1.0
e 328 608 1.0
e 328 71 1.0
e 329 629 1.0
e 329 362 2.0
e 329 67 1.0
e 329 376 1.0
e 330 521 1.0
e 330 417 35.0
e 330 621 1.0
e 330 120 1.0
e 331 556 41.0
e 331 299 30.0
e 331 506 33.0
e 331 104 41.0
e 332 588 1.0
e 332 25 1.0
e 332 154 2.0
e 332 235 1.0
e 333 599 3.0
e 333 462 1.0
e 333 472 42.0
e 333 283 1.0
e 334 327 1.0
e 334 356 1.0
e 334 74 35.0
e 334 125 2.0
e 335 332 31.0
e 335 347 47.0
e 335 351 4.0
e 335 117 25.0
e 336 423 1.0
e 336 78 22.0
e 336 576 1.0
e 336 602 1.0
e 337 214 1.0
e 337 51 1.0
e 337 82 35.0
e 337 470 1.0
e 338 210 3.0
e 338 73 2.0
e 338 559 1.0
e 338 502 32.0
e 339 302 1.0
e 339 588 1.0
e 339 226 1.0
e 339 498 1.0
e 340 502 47.0
e 340 36 9.0
e 340 558 42.0
e 340 511 2.0
e 341 448 35.0
e 341 375 2.0
e 341 560 1.0
e 341 146 40.0
e 342 514 49.0
e 342 436 46.0
e 342 46 5.0
e 342 302 22.0
e 343 365 42.0
e 343 29 4.0
e 343 448 5.0
e 343 59 31.0
e 344 333 1.0
e 344 66 2.0
e 344 329 1.0
e 344 305 1.0
e 345 413 11.0
e 345 234 12.0
e 345 49 1.0
e 345 266 1.0
e 346 521 15.0
e 346 584 22.0
e 346 564 49.0
e 346 585 18.0
e 347 471 1.0
e 347 202 1.0
e 347 534 23.0
e 347 310 1.0
e 348 334 2.0
e 348 148 1.0
e 348 64 3.0
e 348 618 1.0
e 349 436 35.0
e 349 592 1.0
e 349 501 2.0
e 349 626 1.0
e 350 607 1.0
e 350 376 1.0
e 350 38 48.0
e 350 375 2.0
e 351 50 46.0
e 351 615 10.0
e 351 243 10.0
e 351 463 24.0
e 352 208 1.0
e 352 376 1.0
e 352 50 27.0
e 352 204 1.0
e 353 299 1.0
e 353 290 1.0
e 353 493 1.0
e 353 305 1.0
e 354 245 3.0
e 354 278 43.0
e 354 574 8.0
e 354 610 30.0
e 355 620 11.0
e 355 453 4.0
e 355 371 33.0
e 355 626 44.0
e 356 604 1.0
e 356 111 1.0
e 356 411 1.0
e 356 625 45.0
e 357 608 9.0
e 357 195 30.0
e 357 401 42.0
e 357 140 31.0
e 358 594 1.0
e 358 218 29.0
e 358 225 1.0
e 358 95 1.0
e 359 24 42.0
e 359 21 34.0
e 359 22 4.0
e 359 48 7.0
e 360 155 1.0
e 360 381 1.0
e 360 105 33.0
e 360 86 1.0
e 361 439 21.0
e 361 271 1.0
e 361 454 1.0
e 361 288 1.0
e 362 447 2.0
e 362 115 1.0
e 362 131 1.0
e 362 468 2.0
e 363 90 13.0
e 363 304 1.0
e 363 476 1.0
e 363 39 41.0
e 364 620 5.0
e 364 429 1.0
e 364 438 1.0
e 364 170 1.0
e 365 508 12.0
e 365 52 27.0
e 365 287 16.0
e 365 155 32.0
e 366 119 46.0
e 366 588 10.0
e 366 398 47.0
e 366 65 22.0
e 367 190 1.0
e 367 245 1.0
e 367 40 3.0
e 367 541 49.0
e 368 161 1.0
e 368 5 49.0
e 368 315 1.0
e 368 178 1.0
e 369 171 1.0
e 369 48 2.0
e 369 26 2.0
e 369 314 1.0
e 370 307 36.0
e 370 351 42.0
e 370 343 17.0
e 370 191 1.0
e 371 46 1.0
e 371 63 37.0
e 371 525 2.0
e 371 55 1.0
e 372 634 49.0
e 372 295 2.0
e 372 262 1.0
e 372 252 1.0
e 373 331 18.0
e 373 422 1.0
e 373 510 1.0
e 373 632 1.0
e 374 10 2.0
e 374 27 3.0
e 374 308 37.0
e 374 386 1.0
e 375 407 42.0
e 375 637 1.0
e 375 596 33.0
e 375 48 10.0
e 376 339 2.0
e 376 419 2.0
e 376 588 2.0
e 376 73 1.0
e 377 18 34.0
e 377 418 1.0
e 377 22 1.0
e 377 163 1.0
e 378 263 1.0
e 378 132 1.0
e 378 392 1.0
e 378 86 2.0
e 379 213 27.0
e 379 150 4.0
e 379 559 46.0
e 379 79 32.0
e 380 396 1.0
e 380 528 1.0
e 380 605 40.0
e 380 141 1.0
e 381 352 1.0
e 381 508 22.0
e 381 183 1.0
e 381 527 25.0
e 382 146 40.0
e 382 17 43.0
e 382 244 1.0
e 382 142 16.0
e 383 514 1.0
e 383 204 1.0
e 383 402 1.0
e 383 290 1.0
e 384 113 19.0
e 384 598 1.0
e 384 254 1.0
e 384 630 2.0
e 385 467 1.0
e 385 348 1.0
e 385 423 1.0
e 385 241 1.0
e 386 499 2.0
e 386 420 1.0
e 386 21 1.0
e 386 434 1.0
e 387 596 1.0
e 387 326 1.0
e 387 242 1.0
e 387 332 2.0
e 388 298 1.0
e 388 285 13.0
e 388 271 1.0
e 388 207 1.0
e 389 290 1.0
e 389 631 1.0
e 389 604 1.0
e 389 67 1.0
e 390 160 1.0
e 390 264 3.0
e 390 77 31.0
e 390 458 2.0
e 391 334 1.0
e 391 195 1.0
e 391 53 1.0
e 391 48 1.0
e 392 99 1.0
e 392 620 17.0
e 392 593 8.0
e 392 92 1.0
e 393 410 1.0
e 393 368 1.0
e 393 156 1.0
e 393 295 2.0
e 394 159 1.0
e 394 454 3.0
e 394 123 1.0
e 394 566 12.0
e 395 443 25.0
e 395 202 2.0
e 395 132 1.0
e 395 389 2.0
e 396 477 1.0
e 396 416 1.0
e 396 193 1.0
e 396 511 1.0
e 397 610 1.0
e 397 61 1.0
e 397 162 1.0
e 397 413 8.0
e 398 590 1.0
e 398 43 9.0
e 398 445 1.0
e 398 182 32.0
e 399 289 1.0
e 399 487 1.0
e 399 46 30.0
e 399 476 1.0
e 400 378 1.0
e 400 196 23.0
e 400 488 27.0
e 400 310 1.0
e 401 74 35.0
e 401 372 2.0
e 401 398 1.0
e 401 446 1.0
e 402 577 1.0
e 402 444 1.0
e 402 450 31.0
e 402 321 1.0
e 403 199 1.0
e 403 33 43.0
e 403 130 1.0
e 403 73 1.0
e 404 588 1.0
e 404 324 1.0
e 404 257 1.0
e 404 460 1.0
e 405 378 1.0
e 405 384 1.0
e 405 608 1.0
e 405 356 1.0
e 406 201 1.0
e 406 290 1.0
e 406 315 1.0
e 406 532 34.0
e 407 350 4.0
e 407 346 6.0
e 407 630 16.0
e 407 351 30.0
e 408 364 1.0
e 408 565 2.0
e 408 392 2.0
e 408 155 2.0
e 409 143 1.0
e 409 283 1.0
e 409 363 1.0
e 409 431 1.0
e 410 384 1.0
e 410 199 1.0
e 410 551 9.0
e 410 252 1.0
e 411 55 1.0
e 411 590 1.0
e 411 497 3.0
e 411 532 26.0
e 412 81 1.0
e 412 4 1.0
e 412 574 1.0
e 412 175 1.0
e 413 520 30.0
e 413 515 6.0
e 413 611 2.0
e 413 437 33.0
e 414 421 1.0
e 414 153 1.0
e 414 609 2.0
e 414 161 2.0
e 415 604 2.0
e 415 121 2.0
e 415 197 1.0
e 415 93 2.0
e 416 180 1.0
e 416 63 5.0
e 416 604 2.0
e 416 133 1.0
e 417 75 44.0
e 417 416 12.0
e 417 345 37.0
e 417 165 30.0
e 418 192 30.0
e 418 497 1.0
e 418 371 1.0
e 418 468 1.0
e 419 477 1.0
e 419 589 2.0
e 419 149 1.0
e 419 9 1.0
e 420 450 18.0
e 420 516 9.0
e 420 379 28.0
e 420 83 1.0
e 421 532 7.0
e 421 252 1.0
e 421 46 5.0
e 421 634 37.0
e 422 99 1.0
e 422 608 1.0
e 422 274 40.0
e 422 478 2.0
e 423 156 1.0
e 423 186 2.0
e 423 360 3.0
e 423 568 9.0
e 424 155 28.0
e 424 548 39.0
e 424 547 46.0
e 424 23 20.0
e 425 372 1.0
e 425 331 14.0
e 425 267 42.0
e 425 433 2.0
e 426 256 1.0
e 426 489 1.0
e 426 340 35.0
e 426 412 1.0
e 427 252 1.0
e 427 40 1.0
e 427 242 1.0
e 427 199 1.0
e 428 21 1.0
e 428 239 1.0
e 428 380 1.0
e 428 492 2.0
e 429 235 1.0
e 429 320 1.0
e 429 133 1.0
e 429 451 1.0
e 430 310 1.0
e 430 244 2.0
e 430 68 1.0
e 430 296 2.0
e 431 112 1.0
e 431 87 1.0
e 431 79 1.0
e 431 424 7.0
e 432 373 2.0
e 432 9 2.0
e 432 493 1.0
e 432 604 1.0
e 433 482 2.0
e 433 107 1.0
e 433 466 1.0
e 433 146 43.0
e 434 226 2.0
e 434 45 1.0
e 434 305 2.0
e 434 115 1.0
e 435 535 2.0
e 435 239 1.0
e 435 24 1.0
e 435 271 1.0
e 436 30 8.0
e 436 598 26.0
e 436 71 25.0
e 436 485 21.0
e 437 359 25.0
e 437 551 47.0
e 437 447 1.0
e 437 240 1.0
e 438 387 1.0
e 438 386 1.0
e 438 617 1.0
e 438 621 1.0
e 439 330 33.0
e 439 50 27.0
e 439 21 12.0
e 439 173 23.0
e 440 442 27.0
e 440 503 3.0
e 440 176 43.0
e 440 322 3.0
e 441 290 1.0
e 441 36 1.0
e 441 439 13.0
e 441 126 1.0
e 442 638 1.0
e 442 579 3.0
e 442 419 1.0
e 442 273 1.0
e 443 192 30.0
e 443 557 17.0
e 443 77 49.0
e 443 288 39.0
e 444 59 1.0
e 444 274 44.0
e 444 240 1.0
e 444 263 1.0
e 445 504 1.0
e 445 295 1.0
e 445 85 1.0
e 445 369 1.0
e 446 437 1.0
e 446 483 29.0
e 446 321 1.0
e 446 530 1.0
e 447 350 1.0
e 447 589 1.0
e 447 86 1.0
e 447 431 1.0
e 448 590 41.0
e 448 461 13.0
e 448 35 40.0
e 448 147 20.0
e 449 73 1.0
e 449 442 1.0
e 449 468 1.0
e 449 624 1.0
e 450 112 31.0
e 450 607 3.0
e 450 591 10.0
e 450 611 16.0
e 451 259 1.0
e 451 626 1.0
e 451 466 1.0
e 451 235 1.0
e 452 630 1.0
e 452 164 1.0
e 452 626 1.0
e 452 255 1.0
e 453 505 25.0
e 453 265 34.0
e 453 440 19.0
e 453 238 1.0
e 454 475 1.0
e 454 362 2.0
e 454 609 1.0
e 454 438 1.0
e 455 206 33.0
e 455 376 12.0
e 455 48 37.0
e 455 416 32.0
e 456 153 1.0
e 456 116 2.0
e 456 622 1.0
e 456 184 2.0
e 457 387 40.0
e 457 285 39.0
e 457 25 5.0
e 457 339 3.0
e 458 396 1.0
e 458 99 2.0
e 458 431 1.0
e 458 450 19.0
e 459 149 1.0
e 459 517 18.0
e 459 540 1.0
e 459 321 1.0
e 460 193 1.0
e 460 383 1.0
e 460 482 1.0
e 460 567 1.0
e 461 251 2.0
e 461 125 1.0
e 461 457 11.0
e 461 453 1.0
e 462 566 48.0
e 462 419 1.0
e 462 440 1.0
e 462 377 1.0
e 463 208 1.0
e 463 509 14.0
e 463 383 1.0
e 463 367 1.0
e 464 497 49.0
e 464 163 42.0
e 464 166 30.0
e 464 365 9.0
e 465 334 1.0
e 465 3 1.0
e 465 606 1.0
e 465 223 1.0
e 466 638 3.0
e 466 102 1.0
e 466 513 18.0
e 466 389 1.0
e 467 144 1.0
e 467 13 1.0
e 467 474 33.0
e 467 88 34.0
e 468 280 1.0
e 468 78 44.0
e 468 220 47.0
e 468 584 1.0
e 469 461 1.0
e 469 343 38.0
e 469 253 2.0
e 469 366 23.0
e 470 506 8.0
e 470 2 27.0
e 470 246 1.0
e 470 104 14.0
e 471 335 47.0
e 471 475 1.0
e 471 465 1.0
e 471 400 1.0
e 472 33 29.0
e 472 489 37.0
e 472 168 11.0
e 472 97 25.0
e 473 140 22.0
e 473 578 15.0
e 473 406 44.0
e 473 112 8.0
e 474 333 8.0
e 474 484 34.0
e 474 551 24.0
e 474 74 6.0
e 475 383 1.0
e 475 622 1.0
e 475 83 1.0
e 475 613 1.0
e 476 291 1.0
e 476 230 1.0
e 476 579 13.0
e 476 184 1.0
e 477 172 1.0
e 477 613 1.0
e 477 38 6.0
e 477 140 25.0
e 478 226 1.0
e 478 26 1.0
e 478 431 1.0
e 478 51 1.0
e 479 337 2.0
e 479 146 30.0
e 479 56 1.0
e 479 355 24.0
e 480 602 9.0
e 480 527 44.0
e 480 560 46.0
e 480 86 23.0
e 481 556 2.0
e 481 461 1.0
e 481 190 1.0
e 481 507 1.0
e 482 530 1.0
e 482 528 2.0
e 482 544 2.0
e 482 366 24.0
e 483 113 45.0
e 483 21 5.0
e 483 388 32.0
e 483 223 11.0
e 484 456 7.0
e 484 421 43.0
e 484 417 9.0
e 484 560 39.0
e 485 476 1.0
e 485 615 1.0
e 485 379 39.0
e 485 378 1.0
e 486 300 1.0
e 486 227 2.0
e 486 450 33.0
e 486 13 1.0
e 487 269 20.0
e 487 589 1.0
e 487 165 1.0
e 487 461 2.0
e 488 24 6.0
e 488 417 22.0
e 488 256 38.0
e 488 464 11.0
e 489 184 2.0
e 489 390 1.0
e 489 179 17.0
e 489 106 1.0
e 490 14 1.0
e 490 465 2.0
e 490 303 1.0
e 490 229 1.0
e 491 4 28.0
e 491 190 1.0
e 491 351 32.0
e 491 247 47.0
e 492 91 2.0
e 492 323 9.0
e 492 320 37.0
e 492 165 29.0
e 493 593 38.0
e 493 367 1.0
e 493 504 1.0
e 493 426 1.0
e 494 63 31.0
e 494 3 1.0
e 494 202 1.0
e 494 399 1.0
e 495 355 4.0
e 495 222 13.0
e 495 638 16.0
e 495 533 24.0
e 496 126 6.0
e 496 408 36.0
e 496 47 20.0
e 496 630 19.0
e 497 312 1.0
e 497 234 38.0
e 497 189 37.0
e 497 399 1.0
e 498 169 1.0
e 498 577 2.0
e 498 562 1.0
e 498 479 2.0
e 499 347 1.0
e 499 408 1.0
e 499 467 1.0
e 499 438 1.0
e 500 279 42.0
e 500 167 6.0
e 500 185 1.0
e 500 42 1.0
e 501 276 4.0
e 501 260 1.0
e 501 318 1.0
e 501 552 1.0
e 502 304 17.0
e 502 19 4.0
e 502 635 48.0
e 502 402 41.0
e 503 471 1.0
e 503 115 1.0
e 503 32 1.0
e 503 254 1.0
e 504 292 19.0
e 504 430 2.0
e 504 201 1.0
e 504 613 1.0
e 505 179 49.0
e 505 351 49.0
e 505 188 21.0
e 505 448 1.0
e 506 57 21.0
e 506 227 22.0
e 506 293 18.0
e 506 72 3.0
e 507 586 1.0
e 507 464 17.0
e 507 615 1.0
e 507 151 1.0
e 508 484 47.0
e 508 463 29.0
e 508 71 43.0
e 508 349 47.0
e 509 593 34.0
e 509 238 26.0
e 509 557 49.0
e 509 228 36.0
e 510 13 1.0
e 510 628 2.0
e 510 274 25.0
e 510 288 1.0
e 511 605 22.0
e 511 604 1.0
e 511 248 1.0
e 511 275 1.0
e 512 278 34.0
e 512 5 21.0
e 512 325 4.0
e 512 209 21.0
e 513 211 15.0
e 513 359 14.0
e 513 636 8.0
e 513 8 34.0
e 514 277 1.0
e 514 574 1.0
e 514 349 1.0
e 514 605 49.0
e 515 564 42.0
e 515 143 42.0
e 515 201 19.0
e 515 49 35.0
e 516 130 38.0
e 516 605 36.0
e 516 399 41.0
e 516 425 2.0
e 517 66 4.0
e 517 565 19.0
e 517 437 20.0
e 517 204 8.0
e 518 441 1.0
e 518 429 1.0
e 518 95 2.0
e 518 325 41.0
e 519 13 19.0
e 519 29 1.0
e 519 130 31.0
e 519 206 31.0
e 520 341 1.0
e 520 342 3.0
e 520 492 9.0
e 520 372 1.0
e 521 66 2.0
e 521 594 2.0
e 521 603 1.0
e 521 40 2.0
e 522 49 29.0
e 522 191 7.0
e 522 18 2.0
e 522 633 10.0
e 523 378 9.0
e 523 75 44.0
e 523 591 13.0
e 523 158 19.0
e 524 233 24.0
e 524 381 33.0
e 524 312 23.0
e 524 369 36.0
e 525 610 2.0
e 525 374 1.0
e 525 203 17.0
e 525 596 1.0
e 526 383 1.0
e 526 135 1.0
e 526 478 1.0
e 526 6 31.0
e 527 95 31.0
e 527 33 1.0
e 527 489 47.0
e 527 154 40.0
e 528 576 1.0
e 528 103 29.0
e 528 630 1.0
e 528 382 1.0
e 529 638 1.0
e 529 429 2.0
e 529 587 1.0
e 529 252 1.0
e 530 245 2.0
e 530 389 1.0
e 530 278 2.0
e 530 292 34.0
e 531 390 1.0
e 531 403 1.0
e 531 260 1.0
e 531 563 1.0
e 532 50 39.0
e 532 638 1.0
e 532 225 21.0
e 532 217 27.0
e 533 614 12.0
e 533 551 42.0
e 533 534 18.0
e 533 388 40.0
e 534 420 27.0
e 534 268 12.0
e 534 126 37.0
e 534 381 22.0
e 535 308 39.0
e 535 13 1.0
e 535 268 15.0
e 535 341 1.0
e 536 133 1.0
e 536 376 1.0
e 536 611 1.0
e 536 449 1.0
e 537 41 3.0
e 537 111 2.0
e 537 381 1.0
e 537 331 13.0
e 538 477 1.0
e 538 520 1.0
e 538 419 1.0
e 538 299 1.0
e 539 571 3.0
e 539 547 46.0
e 539 618 1.0
e 539 444 1.0
e 540 77 26.0
e 540 466 1.0
e 540 251 2.0
e 540 557 42.0
e 541 10 31.0
e 541 2 30.0
e 541 90 16.0
e 541 435 26.0
e 542 387 12.0
e 542 55 38.0
e 542 478 47.0
e 542 24 43.0
e 543 630 1.0
e 543 423 1.0
e 543 310 1.0
e 543 532 24.0
e 544 17 5.0
e 544 227 1.0
e 544 622 1.0
e 544 462 1.0
e 545 132 22.0
e 545 88 44.0
e 545 361 17.0
e 545 111 41.0
e 546 18 49.0
e 546 262 2.0
e 546 173 1.0
e 546 592 1.0
e 547 284 41.0
e 547 258 34.0
e 547 172 29.0
e 547 407 5.0
e 548 429 11.0
e 548 110 6.0
e 548 167 20.0
e 548 183 37.0
e 549 516 36.0
e 549 99 2.0
e 549 507 1.0
e 549 29 1.0
e 550 140 11.0
e 550 388 1.0
e 550 216 2.0
e 550 595 1.0
e 551 345 38.0
e 551 150 12.0
e 551 375 49.0
e 551 2 32.0
e 552 296 2.0
e 552 83 1.0
e 552 319 43.0
e 552 349 1.0
e 553 163 16.0
e 553 394 36.0
e 553 375 43.0
e 553 245 31.0
e 554 368 1.0
e 554 535 1.0
e 554 509 13.0
e 554 259 1.0
e 555 595 1.0
e 555 299 1.0
e 555 101 44.0
e 555 136 1.0
e 556 275 2.0
e 556 577 3.0
e 556 462 2.0
e 556 24 1.0
e 557 153 9.0
e 557 320 25.0
e 557 309 27.0
e 557 441 47.0
e 558 411 1.0
e 558 308 4.0
e 558 389 1.0
e 558 283 1.0
e 559 184 2.0
e 559 12 1.0
e 559 449 1.0
e 559 51 1.0
e 560 342 17.0
e 560 74 7.0
e 560 77 26.0
e 560 589 2.0
e 561 151 1.0
e 561 75 31.0
e 561 136 1.0
e 561 172 1.0
e 562 334 1.0
e 562 355 48.0
e 562 237 1.0
e 563 173 1.0
e 563 311 1.0
e 563 542 40.0
e 563 521 1.0
e 564 47 22.0
e 564 399 42.0
e 564 180 27.0
e 564 287 24.0
e 565 477 1.0
e 565 510 2.0
e 565 200 1.0
e 565 459 1.0
e 566 274 25.0
e 566 473 15.0
e 566 622 31.0
e 566 584 45.0
e 567 513 4.0
e 567 55 2.0
e 567 344 1.0
e 567 313 32.0
e 568 598 45.0
e 568 464 44.0
e 568 491 43.0
e 568 590 39.0
e 569 145 1.0
e 569 228 3.0
e 569 51 3.0
e 569 413 24.0
e 570 502 39.0
e 570 48 1.0
e 570 13 1.0
e 570 75 42.0
e 571 9 2.0
e 571 238 1.0
e 571 244 1.0
e 571 28 1.0
e 572 511 2.0
e 572 588 1.0
e 572 225 1.0
e 572 307 1.0
e 573 497 1.0
e 573 89 2.0
e 573 463 1.0
e 573 469 2.0
e 574 189 7.0
e 574 337 1.0
e 574 571 1.0
e 574 233 1.0
e 575 231 10.0
e 575 39 30.0
e 575 572 7.0
e 575 613 25.0
e 576 83 1.0
e 576 498 3.0
e 576 586 2.0
e 576 152 12.0
e 577 164 1.0
e 577 433 2.0
e 577 448 13.0
e 577 524 20.0
e 578 233 2.0
e 578 530 2.0
e 578 412 1.0
e 578 23 1.0
e 579 282 5.0
e 579 299 20.0
e 579 542 32.0
e 579 182 28.0
e 580 591 45.0
e 580 629 33.0
e 580 533 27.0
e 580 464 27.0
e 581 207 46.0
e 581 596 16.0
e 581 523 35.0
e 581 355 46.0
e 582 475 1.0
e 582 576 1.0
e 582 205 1.0
e 582 184 1.0
e 583 480 40.0
e 583 303 1.0
e 583 317 1.0
e 583 84 1.0
e 584 64 1.0
e 584 70 1.0
e 584 301 1.0
e 584 158 3.0
e 585 425 1.0
e 585 609 1.0
e 585 325 9.0
e 585 287 4.0
e 586 495 32.0
e 586 331 39.0
e 586 379 13.0
e 586 296 1.0
e 587 555 1.0
e 587 228 1.0
e 587 478 1.0
e 587 7 18.0
e 588 450 9.0
e 588 387 1.0
e 588 162 1.0
e 588 248 1.0
e 589 295 1.0
e 589 525 2.0
e 589 565 1.0
e 589 365 37.0
e 590 152 12.0
e 590 416 1.0
e 590 418 1.0
e 590 409 1.0
e 591 207 1.0
e 591 627 1.0
e 591 250 1.0
e 591 300 1.0
e 592 108 1.0
e 592 463 1.0
e 592 502 48.0
e 592 45 1.0
e 593 316 13.0
e 593 554 5.0
e 593 426 9.0
e 593 108 46.0
e 594 32 1.0
e 594 631 1.0
e 594 65 7.0
e 594 174 2.0
e 595 52 2.0
e 595 446 1.0
e 595 324 1.0
e 595 40 2.0
e 596 227 1.0
e 596 539 2.0
e 596 556 2.0
e 596 202 2.0
e 597 61 28.0
e 597 527 17.0
e 597 18 35.0
e 597 96 30.0
e 598 518 1.0
e 598 562 1.0
e 598 5 16.0
e 598 525 2.0
e 599 8 1.0
e 599 370 47.0
e 599 62 2.0
e 599 544 1.0
e 600 468 1.0
e 600 403 2.0
e 600 603 1.0
e 600 635 1.0
e 601 220 7.0
e 601 356 1.0
e 601 7 3.0
e 601 95 1.0
e 602 378 1.0
e 602 429 1.0
e 602 388 1.0
e 602 317 2.0
e 603 556 1.0
e 603 394 1.0
e 603 17 17.0
e 603 491 23.0
e 604 286 28.0
e 604 239 1.0
e 604 490 1.0
e 604 470 1.0
e 605 90 26.0
e 605 531 40.0
e 605 290 11.0
e 605 529 49.0
e 606 153 1.0
e 606 40 1.0
e 606 436 26.0
e 606 365 32.0
e 607 376 2.0
e 607 528 1.0
e 607 206 1.0
e 607 368 1.0
e 608 503 1.0
e 608 135 1.0
e 608 196 39.0
e 608 81 1.0
e 609 259 1.0
e 609 396 1.0
e 609 25 2.0
e 609 354 49.0
e 610 111 1.0
e 610 403 2.0
e 610 218 18.0
e 610 70 1.0
e 611 424 43.0
e 611 626 1.0
e 611 53 1.0
e 611 225 1.0
e 612 37 1.0
e 612 440 21.0
e 612 504 1.0
e 612 591 1.0
e 613 578 2.0
e 613 299 1.0
e 613 265 16.0
e 613 171 1.0
e 614 236 16.0
e 614 273 1.0
e 614 76 1.0
e 614 548 22.0
e 615 482 1.0
e 615 513 20.0
e 615 362 1.0
e 615 424 33.0
e 616 426 2.0
e 616 462 12.0
e 616 205 24.0
e 616 560 35.0
e 617 425 1.0
e 617 487 1.0
e 617 8 2.0
e 617 598 1.0
e 618 598 1.0
e 618 316 1.0
e 618 451 1.0
e 618 260 1.0
e 619 174 40.0
e 619 511 2.0
e 619 124 2.0
e 619 301 1.0
e 620 377 31.0
e 620 56 8.0
e 620 465 12.0
e 620 353 34.0
e 621 486 1.0
e 621 580 25.0
e 621 54 1.0
e 621 460 1.0
e 622 269 35.0
e 622 58 1.0
e 622 484 26.0
e 622 342 15.0
e 623 28 45.0
e 623 127 13.0
e 623 282 35.0
e 623 172 49.0
e 624 271 1.0
e 624 390 1.0
e 624 292 21.0
e 624 333 1.0
e 625 1 30.0
e 625 345 17.0
e 625 265 8.0
e 625 612 42.0
e 626 57 13.0
e 626 97 14.0
e 626 352 1.0
e 626 539 1.0
e 627 471 1.0
e 627 244 1.0
e 627 402 1.0
e 627 466 1.0
e 628 412 2.0
e 628 70 1.0
e 628 591 1.0
e 628 443 30.0
e 629 472 16.0
e 629 292 33.0
e 629 348 1.0
e 629 604 2.0
e 630 200 1.0
e 630 611 1.0
e 630 420 1.0
e 630 276 5.0
e 631 523 47.0
e 631 450 38.0
e 631 474 30.0
e 631 609 1.0
e 632 627 1.0
e 632 53 1.0
e 632 443 42.0
e 632 9 2.0
e 633 206 2.0
e 633 193 2.0
e 633 329 1.0
e 633 119 1.0
e 634 215 38.0
e 634 225 36.0
e 634 140 19.0
e 634 110 41.0
e 635 364 1.0
e 635 481 1.0
e 635 461 1.0
e 635 121 1.0
e 636 523 8.0
e 636 576 2.0
e 636 188 47.0
e 636 499 2.0
e 637 358 1.0
e 637 325 12.0
e 637 261 2.0
e 637 330 1.0
e 638 159 1.0
e 638 329 1.0
e 638 573 1.0
e 638 301 1.0
e 639 618 1.0
e 639 356 1.0
e 639 229 1.0
e 639 232 1.0
